(declare-const a Real)
(declare-const b Real)
(declare-const c Real)
(assert (= (* a b c) 1))
(assert (> a 0))
(assert (> b 0))
(assert (> c 0))
(assert (not (<= (+ (* -677849 (pow a 4)) (* -3537881 (pow a (/ 3538944 3537881)) (pow b (/ 10612580 3537881))) (* 104058 (pow a 2) (pow b 2)) (* 965276 b (pow a 3)) (* 3146396 a (pow b 3))) 0)))
(check-sat)
(get-model)
(exit)